c defined variables: 25 26 27 28 29 30 31 32 33 34 35 36 37 38 39 40 41 42 43 44 45 46 47 48 49 50 51 52 53 54 55 56 57 58 59 60 61 62 63 66 67 68 69 70 71 72 73 74 75 76 77 78 79 80 81 82 83 84 85 86 87 88 89 90 91 92 94 95 96 97 98 99 100 101 102 103 104 105 106 107 108 109 110 111 112 113 114 115 116 117 118 119 120 121 122 123 124 125 126 127 128 129 130 131 132 133 134 135 136 137 138 139 140 141 142 143 144 145 146 147 148 149 150 151 152 153 154 155 156 157 158 159 160 161 162 163 164 165 166 167 168 169 170 171 172 173 174 175 176 177 178 
p cnf 787 1198
a 1 3 4 5 6 7 8 9 10 11 12 13 14 15 16 17 18 19 20 21 22 0
e 64 65 93 25 26 27 28 29 30 31 32 33 34 35 36 37 38 39 40 41 42 43 44 45 46 47 48 49 50 51 52 53 54 55 56 57 58 59 60 61 62 63 66 67 68 69 70 71 72 73 74 75 76 77 78 79 80 81 82 83 84 85 86 87 88 89 90 91 92 94 95 96 97 98 99 100 101 102 103 104 105 106 107 108 109 110 111 112 113 114 115 116 117 118 119 120 121 122 123 124 125 126 127 128 129 130 131 132 133 134 135 136 137 138 139 140 141 142 143 144 145 146 147 148 149 150 151 152 153 154 155 156 157 158 159 160 161 162 163 164 165 166 167 168 169 170 171 172 173 174 175 176 177 178 643 644 645 646 647 648 649 650 651 652 653 654 655 656 657 658 659 660 661 662 663 664 665 666 667 668 669 670 671 672 673 674 675 676 677 678 679 680 681 682 683 684 685 686 687 688 689 690 691 692 693 694 695 696 697 698 699 700 701 702 703 704 705 706 707 708 709 710 711 712 713 714 715 716 717 718 719 720 721 722 723 724 725 726 727 728 729 730 731 732 733 734 735 736 737 738 739 740 741 742 743 744 745 746 747 748 749 750 751 752 753 754 755 756 757 758 759 760 761 762 763 764 765 766 767 768 769 770 771 772 773 774 775 776 777 778 779 780 781 782 783 784 785 786 787 0
d 2 1 3 4 5 6 7 8 9 10 11 12 0
d 23 3 4 5 6 7 8 9 10 11 12 0
d 24 13 14 15 16 17 18 19 20 21 22 0
644 -25 0
-644 25 0
645 -26 0
-645 26 0
646 -27 0
-646 27 0
647 -28 0
-647 28 0
648 -29 0
-648 29 0
649 -30 0
-649 30 0
650 -31 0
-650 31 0
651 -32 0
-651 32 0
652 -33 0
-652 33 0
653 -34 0
-653 34 0
654 -35 0
-654 35 0
655 -36 0
-655 36 0
656 -37 0
-656 37 0
657 -38 0
-657 38 0
658 -39 0
-658 39 0
659 -40 0
-659 40 0
660 -41 0
-660 41 0
661 -42 0
-661 42 0
662 -43 0
-662 43 0
663 -44 0
-663 44 0
664 -45 0
-664 45 0
665 -46 0
-665 46 0
666 -47 0
-666 47 0
667 -48 0
-667 48 0
668 -49 0
-668 49 0
669 -50 0
-669 50 0
670 -51 0
-670 51 0
671 -52 0
-671 52 0
672 -53 0
-672 53 0
673 -54 0
-673 54 0
674 -55 0
-674 55 0
675 -56 0
-675 56 0
676 -57 0
-676 57 0
677 -58 0
-677 58 0
678 -59 0
-678 59 0
679 -60 0
-679 60 0
680 -61 0
-680 61 0
681 -62 0
-681 62 0
682 -63 0
-682 63 0
683 -66 0
-683 66 0
-643 -67 0
643 67 0
684 -68 0
-684 68 0
685 -69 0
-685 69 0
686 -70 0
-686 70 0
687 -71 0
-687 71 0
688 -72 0
-688 72 0
689 -73 0
-689 73 0
690 -74 0
-690 74 0
691 -75 0
-691 75 0
692 -76 0
-692 76 0
693 -77 0
-693 77 0
694 -78 0
-694 78 0
695 -79 0
-695 79 0
696 -80 0
-696 80 0
697 -81 0
-697 81 0
698 -82 0
-698 82 0
-699 -83 0
699 83 0
700 -84 0
-700 84 0
701 -85 0
-701 85 0
702 -86 0
-702 86 0
703 -87 0
-703 87 0
704 -88 0
-704 88 0
705 -89 0
-705 89 0
706 -90 0
-706 90 0
707 -91 0
-707 91 0
708 -92 0
-708 92 0
709 -94 0
-709 94 0
710 -95 0
-710 95 0
-711 -96 0
711 96 0
712 -97 0
-712 97 0
713 -98 0
-713 98 0
714 -99 0
-714 99 0
715 -100 0
-715 100 0
716 -101 0
-716 101 0
717 -102 0
-717 102 0
718 -103 0
-718 103 0
719 -104 0
-719 104 0
720 -105 0
-720 105 0
721 -106 0
-721 106 0
722 -107 0
-722 107 0
723 -108 0
-723 108 0
724 -109 0
-724 109 0
725 -110 0
-725 110 0
726 -111 0
-726 111 0
727 -112 0
-727 112 0
728 -113 0
-728 113 0
729 -114 0
-729 114 0
730 -115 0
-730 115 0
731 -116 0
-731 116 0
732 -117 0
-732 117 0
-733 -118 0
733 118 0
734 -119 0
-734 119 0
735 -120 0
-735 120 0
736 -121 0
-736 121 0
737 -122 0
-737 122 0
738 -123 0
-738 123 0
739 -124 0
-739 124 0
740 -125 0
-740 125 0
741 -126 0
-741 126 0
742 -127 0
-742 127 0
-743 -128 0
743 128 0
744 -129 0
-744 129 0
745 -130 0
-745 130 0
746 -131 0
-746 131 0
747 -132 0
-747 132 0
748 -133 0
-748 133 0
749 -134 0
-749 134 0
750 -135 0
-750 135 0
-751 -136 0
751 136 0
752 -137 0
-752 137 0
753 -138 0
-753 138 0
754 -139 0
-754 139 0
755 -140 0
-755 140 0
756 -141 0
-756 141 0
757 -142 0
-757 142 0
758 -143 0
-758 143 0
759 -144 0
-759 144 0
-760 -145 0
760 145 0
761 -146 0
-761 146 0
762 -147 0
-762 147 0
763 -148 0
-763 148 0
764 -149 0
-764 149 0
765 -150 0
-765 150 0
766 -151 0
-766 151 0
767 -152 0
-767 152 0
-768 -153 0
768 153 0
769 -154 0
-769 154 0
770 -155 0
-770 155 0
771 -156 0
-771 156 0
772 -157 0
-772 157 0
773 -158 0
-773 158 0
774 -159 0
-774 159 0
775 -160 0
-775 160 0
776 -161 0
-776 161 0
777 -162 0
-777 162 0
778 -163 0
-778 163 0
-643 -164 0
643 164 0
-643 -165 0
643 165 0
779 -166 0
-779 166 0
780 -167 0
-780 167 0
781 -168 0
-781 168 0
782 -169 0
-782 169 0
783 -170 0
-783 170 0
784 -171 0
-784 171 0
785 -172 0
-785 172 0
786 -173 0
-786 173 0
787 -174 0
-787 174 0
-643 -175 0
643 175 0
643 -176 0
-643 176 0
643 -177 0
-643 177 0
643 -178 0
-643 178 0
-25 -21 0
-25 11 0
25 21 -11 0
-26 21 0
-26 -11 0
26 -21 11 0
-27 -25 0
-27 -26 0
27 25 26 0
-28 -22 0
-28 12 0
28 22 -12 0
-29 22 0
-29 -12 0
29 -22 12 0
-30 -28 0
-30 -29 0
30 28 29 0
-31 27 0
-31 30 0
31 -27 -30 0
-32 -13 0
-32 3 0
32 13 -3 0
-33 13 0
-33 -3 0
33 -13 3 0
-34 -32 0
-34 -33 0
34 32 33 0
-35 -14 0
-35 4 0
35 14 -4 0
-36 14 0
-36 -4 0
36 -14 4 0
-37 -35 0
-37 -36 0
37 35 36 0
-38 34 0
-38 37 0
38 -34 -37 0
-39 -15 0
-39 5 0
39 15 -5 0
-40 15 0
-40 -5 0
40 -15 5 0
-41 -39 0
-41 -40 0
41 39 40 0
-42 -16 0
-42 6 0
42 16 -6 0
-43 16 0
-43 -6 0
43 -16 6 0
-44 -42 0
-44 -43 0
44 42 43 0
-45 41 0
-45 44 0
45 -41 -44 0
-46 38 0
-46 45 0
46 -38 -45 0
-47 -17 0
-47 7 0
47 17 -7 0
-48 17 0
-48 -7 0
48 -17 7 0
-49 -47 0
-49 -48 0
49 47 48 0
-50 -18 0
-50 8 0
50 18 -8 0
-51 18 0
-51 -8 0
51 -18 8 0
-52 -50 0
-52 -51 0
52 50 51 0
-53 49 0
-53 52 0
53 -49 -52 0
-54 -19 0
-54 9 0
54 19 -9 0
-55 19 0
-55 -9 0
55 -19 9 0
-56 -54 0
-56 -55 0
56 54 55 0
-57 -20 0
-57 10 0
57 20 -10 0
-58 20 0
-58 -10 0
58 -20 10 0
-59 -57 0
-59 -58 0
59 57 58 0
-60 56 0
-60 59 0
60 -56 -59 0
-61 53 0
-61 60 0
61 -53 -60 0
-62 46 0
-62 61 0
62 -46 -61 0
-63 31 0
-63 62 0
63 -31 -62 0
-64 24 0
-64 -23 0
64 -24 23 0
-65 -24 0
-65 23 0
65 24 -23 0
-66 -64 0
-66 -65 0
66 64 65 0
-67 63 0
-67 -66 0
67 -63 66 0
-68 5 0
-68 3 0
68 -5 -3 0
-69 4 0
-69 68 0
69 -4 -68 0
-70 6 0
-70 3 0
70 -6 -3 0
-71 69 0
-71 70 0
71 -69 -70 0
-72 7 0
-72 3 0
72 -7 -3 0
-73 71 0
-73 72 0
73 -71 -72 0
-74 8 0
-74 3 0
74 -8 -3 0
-75 73 0
-75 74 0
75 -73 -74 0
-76 9 0
-76 3 0
76 -9 -3 0
-77 75 0
-77 76 0
77 -75 -76 0
-78 10 0
-78 3 0
78 -10 -3 0
-79 77 0
-79 78 0
79 -77 -78 0
-80 11 0
-80 3 0
80 -11 -3 0
-81 79 0
-81 80 0
81 -79 -80 0
-82 -79 0
-82 -80 0
82 79 80 0
83 -81 0
83 -82 0
-83 81 82 0
-84 -1 0
-84 -83 0
84 1 83 0
-85 1 0
-85 80 0
85 -1 -80 0
-86 -84 0
-86 -85 0
86 84 85 0
-87 -21 0
-87 -86 0
87 21 86 0
-88 21 0
-88 86 0
88 -21 -86 0
-89 -87 0
-89 -88 0
89 87 88 0
-90 12 0
-90 3 0
90 -12 -3 0
-91 81 0
-91 90 0
91 -81 -90 0
-92 -1 0
-92 91 0
92 1 -91 0
-93 -2 0
-93 81 0
93 2 -81 0
-94 -1 0
-94 93 0
94 1 -93 0
-95 -90 0
-95 -94 0
95 90 94 0
96 -92 0
96 -95 0
-96 92 95 0
-97 -22 0
-97 -96 0
97 22 96 0
-98 22 0
-98 96 0
98 -22 -96 0
-99 -97 0
-99 -98 0
99 97 98 0
-100 89 0
-100 99 0
100 -89 -99 0
-101 4 0
-101 3 0
101 -4 -3 0
-102 -1 0
-102 -101 0
102 1 101 0
-103 1 0
-103 101 0
103 -1 -101 0
-104 -102 0
-104 -103 0
104 102 103 0
-105 -14 0
-105 -104 0
105 14 104 0
-106 14 0
-106 104 0
106 -14 -104 0
-107 -105 0
-107 -106 0
107 105 106 0
-108 13 0
-108 107 0
108 -13 -107 0
-109 -5 0
-109 101 0
109 5 -101 0
-110 -1 0
-110 109 0
110 1 -109 0
-111 4 0
-111 -1 0
111 -4 1 0
-112 68 0
-112 -111 0
112 -68 111 0
-113 -110 0
-113 -112 0
113 110 112 0
-114 -15 0
-114 -113 0
114 15 113 0
-115 15 0
-115 113 0
115 -15 -113 0
-116 -114 0
-116 -115 0
116 114 115 0
-117 -69 0
-117 -70 0
117 69 70 0
118 -71 0
118 -117 0
-118 71 117 0
-119 -1 0
-119 -118 0
119 1 118 0
-120 1 0
-120 70 0
120 -1 -70 0
-121 -119 0
-121 -120 0
121 119 120 0
-122 -16 0
-122 -121 0
122 16 121 0
-123 16 0
-123 121 0
123 -16 -121 0
-124 -122 0
-124 -123 0
124 122 123 0
-125 116 0
-125 124 0
125 -116 -124 0
-126 108 0
-126 125 0
126 -108 -125 0
-127 -71 0
-127 -72 0
127 71 72 0
128 -73 0
128 -127 0
-128 73 127 0
-129 -1 0
-129 -128 0
129 1 128 0
-130 1 0
-130 72 0
130 -1 -72 0
-131 -129 0
-131 -130 0
131 129 130 0
-132 -17 0
-132 -131 0
132 17 131 0
-133 17 0
-133 131 0
133 -17 -131 0
-134 -132 0
-134 -133 0
134 132 133 0
-135 -73 0
-135 -74 0
135 73 74 0
136 -75 0
136 -135 0
-136 75 135 0
-137 -1 0
-137 -136 0
137 1 136 0
-138 1 0
-138 74 0
138 -1 -74 0
-139 -137 0
-139 -138 0
139 137 138 0
-140 -18 0
-140 -139 0
140 18 139 0
-141 18 0
-141 139 0
141 -18 -139 0
-142 -140 0
-142 -141 0
142 140 141 0
-143 134 0
-143 142 0
143 -134 -142 0
-144 -75 0
-144 -76 0
144 75 76 0
145 -77 0
145 -144 0
-145 77 144 0
-146 -1 0
-146 -145 0
146 1 145 0
-147 1 0
-147 76 0
147 -1 -76 0
-148 -146 0
-148 -147 0
148 146 147 0
-149 -19 0
-149 -148 0
149 19 148 0
-150 19 0
-150 148 0
150 -19 -148 0
-151 -149 0
-151 -150 0
151 149 150 0
-152 -77 0
-152 -78 0
152 77 78 0
153 -79 0
153 -152 0
-153 79 152 0
-154 -1 0
-154 -153 0
154 1 153 0
-155 1 0
-155 78 0
155 -1 -78 0
-156 -154 0
-156 -155 0
156 154 155 0
-157 -20 0
-157 -156 0
157 20 156 0
-158 20 0
-158 156 0
158 -20 -156 0
-159 -157 0
-159 -158 0
159 157 158 0
-160 151 0
-160 159 0
160 -151 -159 0
-161 143 0
-161 160 0
161 -143 -160 0
-162 126 0
-162 161 0
162 -126 -161 0
-163 100 0
-163 162 0
163 -100 -162 0
-164 163 0
-164 65 0
164 -163 -65 0
-165 23 0
-165 91 0
165 -23 -91 0
-166 -12 0
-166 -11 0
166 12 11 0
-167 -4 0
-167 -3 0
167 4 3 0
-168 -6 0
-168 -5 0
168 6 5 0
-169 167 0
-169 168 0
169 -167 -168 0
-170 -8 0
-170 -7 0
170 8 7 0
-171 -10 0
-171 -9 0
171 10 9 0
-172 170 0
-172 171 0
172 -170 -171 0
-173 169 0
-173 172 0
173 -169 -172 0
-174 166 0
-174 173 0
174 -166 -173 0
-175 -23 0
-175 174 0
175 23 -174 0
-176 -165 0
-176 -175 0
176 165 175 0
-177 -164 0
-177 176 0
177 164 -176 0
-178 -67 0
-178 177 0
178 67 -177 0
178 0
643 0
11 -644 0
-21 -644 0
-11 21 644 0
-11 -645 0
21 -645 0
11 -21 645 0
-25 -646 0
-26 -646 0
25 26 646 0
12 -647 0
-22 -647 0
-12 22 647 0
-12 -648 0
22 -648 0
12 -22 648 0
-28 -649 0
-29 -649 0
28 29 649 0
27 -650 0
30 -650 0
-27 -30 650 0
3 -651 0
-13 -651 0
-3 13 651 0
-3 -652 0
13 -652 0
3 -13 652 0
-32 -653 0
-33 -653 0
32 33 653 0
4 -654 0
-14 -654 0
-4 14 654 0
-4 -655 0
14 -655 0
4 -14 655 0
-35 -656 0
-36 -656 0
35 36 656 0
34 -657 0
37 -657 0
-34 -37 657 0
5 -658 0
-15 -658 0
-5 15 658 0
-5 -659 0
15 -659 0
5 -15 659 0
-39 -660 0
-40 -660 0
39 40 660 0
6 -661 0
-16 -661 0
-6 16 661 0
-6 -662 0
16 -662 0
6 -16 662 0
-42 -663 0
-43 -663 0
42 43 663 0
41 -664 0
44 -664 0
-41 -44 664 0
38 -665 0
45 -665 0
-38 -45 665 0
7 -666 0
-17 -666 0
-7 17 666 0
-7 -667 0
17 -667 0
7 -17 667 0
-47 -668 0
-48 -668 0
47 48 668 0
8 -669 0
-18 -669 0
-8 18 669 0
-8 -670 0
18 -670 0
8 -18 670 0
-50 -671 0
-51 -671 0
50 51 671 0
49 -672 0
52 -672 0
-49 -52 672 0
9 -673 0
-19 -673 0
-9 19 673 0
-9 -674 0
19 -674 0
9 -19 674 0
-54 -675 0
-55 -675 0
54 55 675 0
10 -676 0
-20 -676 0
-10 20 676 0
-10 -677 0
20 -677 0
10 -20 677 0
-57 -678 0
-58 -678 0
57 58 678 0
56 -679 0
59 -679 0
-56 -59 679 0
53 -680 0
60 -680 0
-53 -60 680 0
46 -681 0
61 -681 0
-46 -61 681 0
31 -682 0
62 -682 0
-31 -62 682 0
-64 -683 0
-65 -683 0
64 65 683 0
3 -684 0
5 -684 0
-3 -5 684 0
4 -685 0
68 -685 0
-4 -68 685 0
3 -686 0
6 -686 0
-3 -6 686 0
69 -687 0
70 -687 0
-69 -70 687 0
3 -688 0
7 -688 0
-3 -7 688 0
71 -689 0
72 -689 0
-71 -72 689 0
3 -690 0
8 -690 0
-3 -8 690 0
73 -691 0
74 -691 0
-73 -74 691 0
3 -692 0
9 -692 0
-3 -9 692 0
75 -693 0
76 -693 0
-75 -76 693 0
3 -694 0
10 -694 0
-3 -10 694 0
77 -695 0
78 -695 0
-77 -78 695 0
3 -696 0
11 -696 0
-3 -11 696 0
79 -697 0
80 -697 0
-79 -80 697 0
-79 -698 0
-80 -698 0
79 80 698 0
-81 -699 0
-82 -699 0
81 82 699 0
-1 -700 0
-83 -700 0
1 83 700 0
1 -701 0
80 -701 0
-1 -80 701 0
-84 -702 0
-85 -702 0
84 85 702 0
-21 -703 0
-86 -703 0
21 86 703 0
21 -704 0
86 -704 0
-21 -86 704 0
-87 -705 0
-88 -705 0
87 88 705 0
3 -706 0
12 -706 0
-3 -12 706 0
81 -707 0
90 -707 0
-81 -90 707 0
-1 -708 0
91 -708 0
1 -91 708 0
-1 -709 0
93 -709 0
1 -93 709 0
-90 -710 0
-94 -710 0
90 94 710 0
-92 -711 0
-95 -711 0
92 95 711 0
-22 -712 0
-96 -712 0
22 96 712 0
22 -713 0
96 -713 0
-22 -96 713 0
-97 -714 0
-98 -714 0
97 98 714 0
89 -715 0
99 -715 0
-89 -99 715 0
3 -716 0
4 -716 0
-3 -4 716 0
-1 -717 0
-101 -717 0
1 101 717 0
1 -718 0
101 -718 0
-1 -101 718 0
-102 -719 0
-103 -719 0
102 103 719 0
-14 -720 0
-104 -720 0
14 104 720 0
14 -721 0
104 -721 0
-14 -104 721 0
-105 -722 0
-106 -722 0
105 106 722 0
13 -723 0
107 -723 0
-13 -107 723 0
-5 -724 0
101 -724 0
5 -101 724 0
-1 -725 0
109 -725 0
1 -109 725 0
-1 -726 0
4 -726 0
1 -4 726 0
68 -727 0
-111 -727 0
-68 111 727 0
-110 -728 0
-112 -728 0
110 112 728 0
-15 -729 0
-113 -729 0
15 113 729 0
15 -730 0
113 -730 0
-15 -113 730 0
-114 -731 0
-115 -731 0
114 115 731 0
-69 -732 0
-70 -732 0
69 70 732 0
-71 -733 0
-117 -733 0
71 117 733 0
-1 -734 0
-118 -734 0
1 118 734 0
1 -735 0
70 -735 0
-1 -70 735 0
-119 -736 0
-120 -736 0
119 120 736 0
-16 -737 0
-121 -737 0
16 121 737 0
16 -738 0
121 -738 0
-16 -121 738 0
-122 -739 0
-123 -739 0
122 123 739 0
116 -740 0
124 -740 0
-116 -124 740 0
108 -741 0
125 -741 0
-108 -125 741 0
-71 -742 0
-72 -742 0
71 72 742 0
-73 -743 0
-127 -743 0
73 127 743 0
-1 -744 0
-128 -744 0
1 128 744 0
1 -745 0
72 -745 0
-1 -72 745 0
-129 -746 0
-130 -746 0
129 130 746 0
-17 -747 0
-131 -747 0
17 131 747 0
17 -748 0
131 -748 0
-17 -131 748 0
-132 -749 0
-133 -749 0
132 133 749 0
-73 -750 0
-74 -750 0
73 74 750 0
-75 -751 0
-135 -751 0
75 135 751 0
-1 -752 0
-136 -752 0
1 136 752 0
1 -753 0
74 -753 0
-1 -74 753 0
-137 -754 0
-138 -754 0
137 138 754 0
-18 -755 0
-139 -755 0
18 139 755 0
18 -756 0
139 -756 0
-18 -139 756 0
-140 -757 0
-141 -757 0
140 141 757 0
134 -758 0
142 -758 0
-134 -142 758 0
-75 -759 0
-76 -759 0
75 76 759 0
-77 -760 0
-144 -760 0
77 144 760 0
-1 -761 0
-145 -761 0
1 145 761 0
1 -762 0
76 -762 0
-1 -76 762 0
-146 -763 0
-147 -763 0
146 147 763 0
-19 -764 0
-148 -764 0
19 148 764 0
19 -765 0
148 -765 0
-19 -148 765 0
-149 -766 0
-150 -766 0
149 150 766 0
-77 -767 0
-78 -767 0
77 78 767 0
-79 -768 0
-152 -768 0
79 152 768 0
-1 -769 0
-153 -769 0
1 153 769 0
1 -770 0
78 -770 0
-1 -78 770 0
-154 -771 0
-155 -771 0
154 155 771 0
-20 -772 0
-156 -772 0
20 156 772 0
20 -773 0
156 -773 0
-20 -156 773 0
-157 -774 0
-158 -774 0
157 158 774 0
151 -775 0
159 -775 0
-151 -159 775 0
143 -776 0
160 -776 0
-143 -160 776 0
126 -777 0
161 -777 0
-126 -161 777 0
100 -778 0
162 -778 0
-100 -162 778 0
-11 -779 0
-12 -779 0
11 12 779 0
-3 -780 0
-4 -780 0
3 4 780 0
-5 -781 0
-6 -781 0
5 6 781 0
167 -782 0
168 -782 0
-167 -168 782 0
-7 -783 0
-8 -783 0
7 8 783 0
-9 -784 0
-10 -784 0
9 10 784 0
170 -785 0
171 -785 0
-170 -171 785 0
169 -786 0
172 -786 0
-169 -172 786 0
166 -787 0
173 -787 0
-166 -173 787 0
